2,1,5,1,1,1,6,2,4,1,3,1,7,3,10,10,8,9,9,10;5,3,1,2,4,2,3,7,7,6,10,9,2,10,9,8,6,10,8,10;10,1,6,1,1,3,6,5,3,4,4,6,7,5,2,9,8,6;2,2,5,4,7,2,4,3,3,3,1,4,10,6,6,6,8,4,3,9,9,7;7,1,2,3,8,1,9,5,3,6,10,8,4,7,5,10;10,3,5,5,4,5,2,7,2,8,1,6,3,8,6,9,8,8,9,9,7,10;5,2,9,2,6,3,8,2,10,5,3,5,2,6,1,7,4,9,7,9;9,4,3,2,5,6,10,7,1,5,6,8,4,8,1,8,8,7,7,8,5,8;9,3,2,4,10,4,6,4,4,4,8,5,7,7,1,9,5,9;9,1,10,2,2,5,8,3,7,4,5,7,6,7,9,6,3,10,4,10,1,10;
